
List of user-set options:

                                    Name   Value                used
                        file_print_level = 5                     yes
                   hessian_approximation = limited-memory        yes
                           linear_solver = mumps                 yes
                      nlp_scaling_method = user-scaling          yes
                             output_file = C:\Users\alexa\Documents\Chasing Amber\rosa\group_climb_out/IPOPT.out  yes
                             print_level = 0                     yes
                      print_user_options = yes                   yes
                                      sb = yes                   yes
This is Ipopt version 3.14.17, running with linear solver MUMPS 5.7.3.

Number of nonzeros in equality constraint Jacobian...:        0
Number of nonzeros in inequality constraint Jacobian.:        1
Number of nonzeros in Lagrangian Hessian.............:        0

Total number of variables............................:        1
                     variables with only lower bounds:        0
                variables with lower and upper bounds:        1
                     variables with only upper bounds:        0
Total number of equality constraints.................:        0
Total number of inequality constraints...............:        1
        inequality constraints with only lower bounds:        0
   inequality constraints with lower and upper bounds:        0
        inequality constraints with only upper bounds:        0

iter    objective    inf_pr   inf_du lg(mu)  ||d||  lg(rg) alpha_du alpha_pr  ls
   0  1.1754623e+03 0.00e+00 1.47e+01   0.0 0.00e+00    -  0.00e+00 0.00e+00   0
   1  9.5936923e+02 0.00e+00 1.47e+01   1.3 1.47e+01    -  1.00e+00 1.00e+00f  1
   2  3.0130265e+02 0.00e+00 1.48e+01   3.3 4.65e+05    -  2.27e-03 1.85e-04f  5
   3  1.3827424e+01 0.00e+00 1.47e+01  -0.6 4.29e+01    -  9.62e-01 5.00e-01f  2
Cholesky factorization failed for LBFGS update! Skipping update.
   4  5.8682022e+00 0.00e+00 1.47e+01  -2.0 1.07e+01    -  1.00e+00 1.25e-01f  4
   5  3.9796124e+00 0.00e+00 1.47e+01  -3.5 1.07e+01    -  1.00e+00 6.25e-02f  5
Cholesky factorization failed for LBFGS update! Skipping update.
   6  9.4429491e-01 0.00e+00 1.47e+01  -5.2 3.35e-01    -  1.00e+00 1.00e+00f  1
   7  2.8668192e-01 0.00e+00 1.47e+01  -7.1 3.35e-01    -  1.00e+00 2.50e-01f  3
   8  2.1062289e-02 0.00e+00 1.47e+01  -9.0 4.18e-02    -  1.00e+00 5.00e-01f  2
   9  1.7405736e-02 0.00e+00 1.47e+01 -11.0 1.05e-02    -  1.00e+00 2.50e-01f  3
iter    objective    inf_pr   inf_du lg(mu)  ||d||  lg(rg) alpha_du alpha_pr  ls
  10  1.8282765e-03 0.00e+00 1.47e+01 -11.0 1.31e-03    -  1.00e+00 1.00e+00f  1
  11  5.7597516e-04 0.00e+00 1.47e+01 -11.0 6.54e-04    -  1.00e+00 2.50e-01f  3
  12  2.5087749e-05 0.00e+00 1.47e+01 -11.0 8.17e-05    -  1.00e+00 5.00e-01f  2
  13  1.2478684e-05 0.00e+00 1.47e+01 -11.0 2.04e-05    -  1.00e+00 1.25e-01f  4
  14  6.3045318e-06 0.00e+00 1.47e+01 -11.0 1.28e-06    -  1.00e+00 1.00e+00f  1
  15  3.0870706e-06 0.00e+00 1.47e+01 -11.0 6.39e-07    -  1.00e+00 1.00e+00f  1
  16  1.6087324e-06 0.00e+00 1.47e+01 -11.0 3.19e-07    -  1.00e+00 1.00e+00f  1
  17  7.3917181e-07 0.00e+00 1.47e+01 -11.0 1.60e-07    -  1.00e+00 1.00e+00f  1
  18  4.3478212e-07 0.00e+00 1.47e+01 -11.0 7.98e-08    -  1.00e+00 1.00e+00f  1
  19  1.5219121e-07 0.00e+00 1.47e+01 -11.0 3.99e-08    -  1.00e+00 1.00e+00f  1
iter    objective    inf_pr   inf_du lg(mu)  ||d||  lg(rg) alpha_du alpha_pr  ls
  20  1.4129364e-07 0.00e+00 1.47e+01 -11.0 2.00e-08    -  1.00e+00 1.00e+00f  1
  21  5.4496923e-09 0.00e+00 1.47e+01 -11.0 9.98e-09    -  1.00e+00 1.00e+00f  1
  22  3.7234713e-09 0.00e+00 1.47e+01 -11.0 4.99e-09    -  1.00e+00 1.25e-01f  4
  23  8.6401997e-10 0.00e+00 1.47e+01 -11.0 3.12e-10    -  1.00e+00 1.00e+00f  1
  24  2.8194336e-10 0.00e+00 1.47e+01 -11.0 1.56e-10    -  1.00e+00 5.00e-01f  2
  25  1.8189894e-12 0.00e+00 1.47e+01 -11.0 3.89e-11    -  1.00e+00 5.00e-01f  2
  26  1.8189894e-12 0.00e+00 1.47e+01 -11.0 9.72e-12    -  1.00e+00 1.19e-07f 24
  27  1.8189894e-12 0.00e+00 1.47e+01 -11.0 9.72e-12    -  1.00e+00 1.19e-07f 24
  28  1.8189894e-12 0.00e+00 1.47e+01 -11.0 9.72e-12    -  1.00e+00 1.19e-07f 24
  29  0.0000000e+00 0.00e+00 1.47e+01 -11.0 1.47e+01    -  1.00e+00 1.42e-14f 47
iter    objective    inf_pr   inf_du lg(mu)  ||d||  lg(rg) alpha_du alpha_pr  ls
  30  0.0000000e+00 0.00e+00 1.47e+01 -11.0 1.47e+01    -  1.00e+00 1.08e-19f 64
  31  0.0000000e+00 0.00e+00 1.47e+01 -11.0 1.47e+01    -  1.00e+00 1.08e-19f 64
  32  0.0000000e+00 0.00e+00 1.47e+01 -11.0 1.47e+01    -  1.00e+00 1.08e-19f 64
  33  0.0000000e+00 0.00e+00 1.47e+01 -11.0 1.47e+01    -  1.00e+00 1.08e-19f 64
  34  2.1631240e+02 0.00e+00 1.47e+01 -11.0 1.47e+01    -  1.00e+00 1.00e+00w  1
  35  0.0000000e+00 0.00e+00 1.47e+01 -11.0 1.47e+01    -  1.00e+00 1.00e+00w  1
  36  1.0815620e+02 0.00e+00 1.47e+01 -11.0 7.35e+00    -  1.00e+00 1.00e+00w  1
  37  2.1631240e+02 0.00e+00 1.47e+01 -11.0 3.68e+00    -  1.00e+00 1.00e+00S 21
Cholesky factorization failed for LBFGS update! Skipping update.
  38  1.0294690e+02 0.00e+00 1.47e+01 -11.0 1.47e+05  -4.0 8.88e-03 1.48e-04f  6
  39  4.9538044e+01 0.00e+00 1.47e+01 -11.0 4.41e+05  -4.5 1.52e-03 2.35e-05f  8
Cholesky factorization failed for LBFGS update! Skipping update.
iter    objective    inf_pr   inf_du lg(mu)  ||d||  lg(rg) alpha_du alpha_pr  ls
  40  2.6704428e+01 0.00e+00 1.47e+01 -11.0 5.18e+00    -  1.00e+00 1.00e+00f  1
Cholesky factorization failed for LBFGS update! Skipping update.
  41  1.1416808e+01 0.00e+00 1.47e+01 -11.0 5.18e+00    -  1.00e+00 5.00e-01f  2
  42  7.6438098e+00 0.00e+00 1.47e+01 -11.0 5.18e+00    -  1.00e+00 2.50e-01f  3
  43  5.8757154e+00 0.00e+00 1.47e+01 -11.0 1.47e+01    -  1.00e+00 6.25e-02f  5
  44  8.8404721e-01 0.00e+00 1.47e+01 -11.0 4.60e-01    -  1.00e+00 1.00e+00f  1
  45  8.0589344e-01 0.00e+00 1.47e+01 -11.0 2.30e-01    -  1.00e+00 5.00e-01f  2
  46  3.9076885e-02 0.00e+00 1.47e+01 -11.0 5.75e-02    -  1.00e+00 1.00e+00f  1
  47  1.3733760e-02 0.00e+00 1.47e+01 -11.0 2.87e-02    -  1.00e+00 1.25e-01f  4
  48  1.2671563e-02 0.00e+00 1.47e+01 -11.0 1.80e-03    -  1.00e+00 1.00e+00f  1
  49  5.3109861e-04 0.00e+00 1.47e+01 -11.0 8.98e-04    -  1.00e+00 1.00e+00f  1
iter    objective    inf_pr   inf_du lg(mu)  ||d||  lg(rg) alpha_du alpha_pr  ls
  50  2.9406773e-04 0.00e+00 1.47e+01 -11.0 4.49e-04    -  1.00e+00 1.25e-01f  4
  51  1.1851543e-04 0.00e+00 1.47e+01 -11.0 2.81e-05    -  1.00e+00 1.00e+00f  1
  52  8.7776141e-05 0.00e+00 1.47e+01 -11.0 1.40e-05    -  1.00e+00 1.00e+00f  1
  53  1.5369647e-05 0.00e+00 1.47e+01 -11.0 7.01e-06    -  1.00e+00 1.00e+00f  1
  54  1.0416799e-05 0.00e+00 1.47e+01 -11.0 3.51e-06    -  1.00e+00 5.00e-01f  2
  55  2.4764286e-06 0.00e+00 1.47e+01 -11.0 8.77e-07    -  1.00e+00 1.00e+00f  1
  56  7.4688251e-07 0.00e+00 1.47e+01 -11.0 4.38e-07    -  1.00e+00 5.00e-01f  2
  57  5.8946171e-08 0.00e+00 1.47e+01 -11.0 1.10e-07    -  1.00e+00 5.00e-01f  2
  58  4.1780368e-08 0.00e+00 1.47e+01 -11.0 2.74e-08    -  1.00e+00 2.50e-01f  3
  59  8.5856300e-09 0.00e+00 1.47e+01 -11.0 3.42e-09    -  1.00e+00 1.00e+00f  1
iter    objective    inf_pr   inf_du lg(mu)  ||d||  lg(rg) alpha_du alpha_pr  ls
  60  4.0108716e-09 0.00e+00 1.47e+01 -11.0 1.71e-09    -  1.00e+00 5.00e-01f  2
  61  2.2864697e-09 0.00e+00 1.47e+01 -11.0 4.28e-10    -  1.00e+00 1.00e+00f  1
  62  8.5674401e-10 0.00e+00 1.47e+01 -11.0 2.14e-10    -  1.00e+00 1.00e+00f  1
  63  7.1304385e-10 0.00e+00 1.47e+01 -11.0 1.07e-10    -  1.00e+00 1.00e+00f  1
  64  7.0940587e-11 0.00e+00 1.47e+01 -11.0 5.35e-11    -  1.00e+00 1.00e+00f  1
  65  3.0922820e-11 0.00e+00 1.47e+01 -11.0 2.67e-11    -  1.00e+00 2.50e-01f  3
  66  2.1827873e-11 0.00e+00 1.47e+01 -11.0 3.35e-12    -  1.00e+00 1.00e+00f  1
  67  5.4569682e-12 0.00e+00 1.47e+01 -11.0 1.65e-12    -  1.00e+00 1.00e+00f  1
  68  7.2759576e-12 0.00e+00 1.47e+01 -11.0 8.53e-13    -  1.00e+00 1.00e+00   0
  69  1.8189894e-12 0.00e+00 1.47e+01 -11.0 3.98e-13    -  1.00e+00 1.00e+00T  0
Cholesky factorization failed for LBFGS update! Skipping update.
iter    objective    inf_pr   inf_du lg(mu)  ||d||  lg(rg) alpha_du alpha_pr  ls
  70  1.8189894e-12 0.00e+00 1.47e+01  -9.0 2.32e-13  -5.4 1.00e+00 1.00e+00T  0

Number of Iterations....: 70

                                   (scaled)                 (unscaled)
Objective...............:   1.8189894035458565e-12    1.8189894035458565e-12
Dual infeasibility......:   1.4707562796187823e+01    1.4707562796187823e+01
Constraint violation....:   0.0000000000000000e+00    0.0000000000000000e+00
Variable bound violation:   0.0000000000000000e+00    0.0000000000000000e+00
Complementarity.........:   9.0909090909090951e-10    9.0909090909090951e-10
Overall NLP error.......:   1.4707562796187823e+01    1.4707562796187823e+01


Number of objective function evaluations             = 645
Number of objective gradient evaluations             = 71
Number of equality constraint evaluations            = 0
Number of inequality constraint evaluations          = 645
Number of equality constraint Jacobian evaluations   = 0
Number of inequality constraint Jacobian evaluations = 71
Number of Lagrangian Hessian evaluations             = 0
Total seconds in IPOPT                               = 0.296

EXIT: Search Direction is becoming Too Small.
